17 189
11 68
10 107
20 77
22 172
13 36
55 33
34 151
3 180
92 7
9 161
30 188
9 80
70 40
46 4
67 59
3 161
11 105
59 91
38 29
50 79
22 164
17 193
89 29
31 24
24 70
23 38
66 7
7 112
35 42
39 38
47 49
23 8
3 79
42 107
18 169
19 175
31 32
7 76
99 58
34 45
3 44
33 15
56 28
34 10
4 182
5 72
23 61
11 23
53 79
94 25
32 121
16 182
100 5
40 116
47 21
16 91
44 121
88 29
29 118
100 7
6 153
18 136
13 28
15 147
7 137
10 105
4 141
30 21
46 10
39 105
34 82
95 5
50 58
47 118
7 60
13 37
7 56
80 24
70 4
68 43
54 55
48 16
21 121
11 22
20 51
96 23
46 9
29 135
4 157
2 42
7 117
42 56
42 68
30 25
26 122
41 74
88 2
29 137
90 11
